
%FILE DATA:	Soccer Computational Problem for MiniZinc Models	%
%AUTHOR:	Jack Wall	%
%CONTACT:  	116397063@umail.ucc.ie			%
%LAST UPDATE:	03/09/2020, 15:15:29						%
%DESCRIPTION: 	84 games played with 48 games left				%


n=12; %number of teams

%Games to play
games=[|6,8|7,6|10,6|5,4|7,2|1,3|6,11|7,12|8,2|11,10|10,5|10,8|9,12|7,4|1,4|6,7|8,1|6,4|4,12|6,10|1,5|6,1|12,1|2,6|6,9|10,3|12,4|1,7|9,2|3,12|5,3|3,11|4,6|6,2|11,7|11,8|3,9|3,8|1,10|8,9|3,1|2,5|3,5|5,12|6,5|7,1|7,11|2,1|];

%Initial points
iPoints=[9,15,18,22,19,16,16,22,26,21,17,26];

%POSITION CONSTRAINTS
% [|teamID, operator, position|...]
% operators index:
%  1 for =  operator
%  2 for >  operator
%  3 for >= operator
%  4 for <  operator
%  5 for <= operator
positionConstraints=[|12,1,1|9,1,2|7,5,3|];